NAME          
ROWS
 N  OBJ
 L  c2
 L  c3
 L  c4
 L  c5
 L  c6
 L  c7
 L  c8
 L  c9
 L  c10
 L  c11
 G  c1
COLUMNS
    ss[1]     c1        1
    ss[1]     OBJ       1000
    s[1]      c2        1
    s[1]      OBJ       -1000
    s[2]      c3        1
    s[2]      OBJ       -1000
    s[3]      c4        1
    s[3]      OBJ       -1000
    s[4]      c5        1
    s[4]      OBJ       -1000
    s[5]      c6        1
    s[5]      OBJ       -1000
    s[6]      c7        1
    s[6]      OBJ       -1000
    s[7]      c8        1
    s[7]      OBJ       -1000
    s[8]      c9        1
    s[8]      OBJ       -1000
    s[9]      c10       1
    s[9]      OBJ       -1000
    s[10]     c11       1
    s[10]     OBJ       -1000
    MARKER    'MARKER'                 'INTORG'
    x[1]      c2        300
    x[1]      c3        297
    x[1]      c4        24
    x[1]      c5        791
    x[1]      c6        98
    x[1]      c7        4
    x[1]      c8        926
    x[1]      c9        682
    x[1]      c10       942
    x[1]      c11       608
    x[1]      c1        556
    x[1]      OBJ       -268
    x[2]      c2        78
    x[2]      c3        539
    x[2]      c4        638
    x[2]      c5        715
    x[2]      c6        947
    x[2]      c7        459
    x[2]      c8        396
    x[2]      c9        495
    x[2]      c10       431
    x[2]      c11       446
    x[2]      c1        736
    x[2]      OBJ       -94
    x[3]      c2        275
    x[3]      c3        903
    x[3]      c4        899
    x[3]      c5        560
    x[3]      c6        956
    x[3]      c7        106
    x[3]      c8        649
    x[3]      c9        207
    x[3]      c10       834
    x[3]      c11       555
    x[3]      c1        301
    x[3]      OBJ       -560
    x[4]      c2        724
    x[4]      c3        75
    x[4]      c4        982
    x[4]      c5        703
    x[4]      c6        509
    x[4]      c7        86
    x[4]      c8        219
    x[4]      c9        741
    x[4]      c10       554
    x[4]      c11       22
    x[4]      c1        111
    x[4]      OBJ       -551
    x[5]      c2        674
    x[5]      c3        384
    x[5]      c4        207
    x[5]      c5        415
    x[5]      c6        298
    x[5]      c7        392
    x[5]      c8        598
    x[5]      c9        459
    x[5]      c10       850
    x[5]      c11       45
    x[5]      c1        704
    x[5]      OBJ       210
    x[6]      c2        227
    x[6]      c3        474
    x[6]      c4        788
    x[6]      c5        363
    x[6]      c6        728
    x[6]      c7        345
    x[6]      c8        352
    x[6]      c9        268
    x[6]      c10       484
    x[6]      c11       384
    x[6]      c1        408
    x[6]      OBJ       -465
    x[7]      c2        84
    x[7]      c3        909
    x[7]      c4        194
    x[7]      c5        239
    x[7]      c6        253
    x[7]      c7        585
    x[7]      c8        454
    x[7]      c9        898
    x[7]      c10       58
    x[7]      c11       422
    x[7]      c1        163
    x[7]      OBJ       -252
    x[8]      c2        587
    x[8]      c3        5
    x[8]      c4        455
    x[8]      c5        357
    x[8]      c6        779
    x[8]      c7        761
    x[8]      c8        493
    x[8]      c9        380
    x[8]      c10       191
    x[8]      c11       518
    x[8]      c1        315
    x[8]      OBJ       -374
    x[9]      c2        768
    x[9]      c3        97
    x[9]      c4        217
    x[9]      c5        953
    x[9]      c6        244
    x[9]      c7        193
    x[9]      c8        1
    x[9]      c9        440
    x[9]      c10       108
    x[9]      c11       80
    x[9]      c1        670
    x[9]      OBJ       -5
    x[10]     c2        51
    x[10]     c3        323
    x[10]     c4        71
    x[10]     c5        567
    x[10]     c6        208
    x[10]     c7        746
    x[10]     c8        968
    x[10]     c9        138
    x[10]     c10       75
    x[10]     c11       954
    x[10]     c1        457
    x[10]     OBJ       -344
    x[11]     c2        446
    x[11]     c3        326
    x[11]     c4        799
    x[11]     c5        368
    x[11]     c6        324
    x[11]     c7        19
    x[11]     c8        979
    x[11]     c9        413
    x[11]     c10       792
    x[11]     c11       960
    x[11]     c1        357
    x[11]     OBJ       -439
    x[12]     c2        955
    x[12]     c3        125
    x[12]     c4        539
    x[12]     c5        349
    x[12]     c6        227
    x[12]     c7        393
    x[12]     c8        240
    x[12]     c9        193
    x[12]     c10       801
    x[12]     c11       253
    x[12]     c1        916
    x[12]     OBJ       342
    x[13]     c2        886
    x[13]     c3        578
    x[13]     c4        720
    x[13]     c5        21
    x[13]     c6        50
    x[13]     c7        73
    x[13]     c8        675
    x[13]     c9        148
    x[13]     c10       451
    x[13]     c11       285
    x[13]     c1        614
    x[13]     OBJ       -113
    x[14]     c2        871
    x[14]     c3        415
    x[14]     c4        713
    x[14]     c5        874
    x[14]     c6        708
    x[14]     c7        932
    x[14]     c8        6
    x[14]     c9        348
    x[14]     c10       994
    x[14]     c11       425
    x[14]     c1        60
    x[14]     OBJ       -1021
    x[15]     c2        557
    x[15]     c3        420
    x[15]     c4        443
    x[15]     c5        874
    x[15]     c6        719
    x[15]     c7        117
    x[15]     c8        373
    x[15]     c9        642
    x[15]     c10       950
    x[15]     c11       552
    x[15]     c1        373
    x[15]     OBJ       -632
    x[16]     c2        978
    x[16]     c3        581
    x[16]     c4        268
    x[16]     c5        872
    x[16]     c6        158
    x[16]     c7        389
    x[16]     c8        499
    x[16]     c9        148
    x[16]     c10       145
    x[16]     c11       513
    x[16]     c1        182
    x[16]     OBJ       -597
    x[17]     c2        336
    x[17]     c3        272
    x[17]     c4        257
    x[17]     c5        443
    x[17]     c6        787
    x[17]     c7        2
    x[17]     c8        51
    x[17]     c9        274
    x[17]     c10       512
    x[17]     c11       984
    x[17]     c1        129
    x[17]     OBJ       -356
    x[18]     c2        442
    x[18]     c3        455
    x[18]     c4        861
    x[18]     c5        56
    x[18]     c6        33
    x[18]     c7        10
    x[18]     c8        699
    x[18]     c9        830
    x[18]     c10       956
    x[18]     c11       757
    x[18]     c1        767
    x[18]     OBJ       -189
    x[19]     c2        71
    x[19]     c3        895
    x[19]     c4        891
    x[19]     c5        632
    x[19]     c6        536
    x[19]     c7        184
    x[19]     c8        731
    x[19]     c9        679
    x[19]     c10       345
    x[19]     c11       219
    x[19]     c1        896
    x[19]     OBJ       -41
    x[20]     c2        222
    x[20]     c3        294
    x[20]     c4        857
    x[20]     c5        798
    x[20]     c6        60
    x[20]     c7        406
    x[20]     c8        134
    x[20]     c9        964
    x[20]     c10       52
    x[20]     c11       50
    x[20]     c1        178
    x[20]     OBJ       -550
    x[21]     c2        505
    x[21]     c3        633
    x[21]     c4        633
    x[21]     c5        255
    x[21]     c6        327
    x[21]     c7        314
    x[21]     c8        899
    x[21]     c9        82
    x[21]     c10       750
    x[21]     c11       772
    x[21]     c1        975
    x[21]     OBJ       -89
    x[22]     c2        327
    x[22]     c3        858
    x[22]     c4        620
    x[22]     c5        773
    x[22]     c6        852
    x[22]     c7        256
    x[22]     c8        312
    x[22]     c9        147
    x[22]     c10       776
    x[22]     c11       956
    x[22]     c1        226
    x[22]     OBJ       -811
    x[23]     c2        706
    x[23]     c3        215
    x[23]     c4        336
    x[23]     c5        36
    x[23]     c6        128
    x[23]     c7        3
    x[23]     c8        402
    x[23]     c9        289
    x[23]     c10       653
    x[23]     c11       434
    x[23]     c1        404
    x[23]     OBJ       -126
    x[24]     c2        86
    x[24]     c3        157
    x[24]     c4        912
    x[24]     c5        692
    x[24]     c6        105
    x[24]     c7        544
    x[24]     c8        997
    x[24]     c9        557
    x[24]     c10       15
    x[24]     c11       427
    x[24]     c1        833
    x[24]     OBJ       -183
    x[25]     c2        596
    x[25]     c3        807
    x[25]     c4        500
    x[25]     c5        239
    x[25]     c6        968
    x[25]     c7        903
    x[25]     c8        449
    x[25]     c9        396
    x[25]     c10       515
    x[25]     c11       417
    x[25]     c1        575
    x[25]     OBJ       -383
    x[26]     c2        257
    x[26]     c3        322
    x[26]     c4        361
    x[26]     c5        485
    x[26]     c6        314
    x[26]     c7        839
    x[26]     c8        494
    x[26]     c9        805
    x[26]     c10       296
    x[26]     c11       676
    x[26]     c1        340
    x[26]     OBJ       -408
    x[27]     c2        726
    x[27]     c3        670
    x[27]     c4        66
    x[27]     c5        980
    x[27]     c6        978
    x[27]     c7        640
    x[27]     c8        621
    x[27]     c9        679
    x[27]     c10       223
    x[27]     c11       227
    x[27]     c1        321
    x[27]     OBJ       -653
    x[28]     c2        420
    x[28]     c3        997
    x[28]     c4        469
    x[28]     c5        381
    x[28]     c6        368
    x[28]     c7        893
    x[28]     c8        938
    x[28]     c9        912
    x[28]     c10       19
    x[28]     c11       693
    x[28]     c1        580
    x[28]     OBJ       -401
    x[29]     c2        835
    x[29]     c3        315
    x[29]     c4        789
    x[29]     c5        886
    x[29]     c6        318
    x[29]     c7        606
    x[29]     c8        211
    x[29]     c9        630
    x[29]     c10       192
    x[29]     c11       279
    x[29]     c1        425
    x[29]     OBJ       -394
    x[30]     c2        792
    x[30]     c3        101
    x[30]     c4        717
    x[30]     c5        875
    x[30]     c6        826
    x[30]     c7        660
    x[30]     c8        749
    x[30]     c9        230
    x[30]     c10       914
    x[30]     c11       50
    x[30]     c1        955
    x[30]     OBJ       -150
    x[31]     c2        739
    x[31]     c3        489
    x[31]     c4        244
    x[31]     c5        592
    x[31]     c6        407
    x[31]     c7        622
    x[31]     c8        169
    x[31]     c9        943
    x[31]     c10       388
    x[31]     c11       249
    x[31]     c1        739
    x[31]     OBJ       -66
    x[32]     c2        373
    x[32]     c3        784
    x[32]     c4        73
    x[32]     c5        345
    x[32]     c6        123
    x[32]     c7        86
    x[32]     c8        118
    x[32]     c9        254
    x[32]     c10       272
    x[32]     c11       199
    x[32]     c1        473
    x[32]     OBJ       -140
    x[33]     c2        796
    x[33]     c3        479
    x[33]     c4        780
    x[33]     c5        863
    x[33]     c6        617
    x[33]     c7        475
    x[33]     c8        413
    x[33]     c9        54
    x[33]     c10       474
    x[33]     c11       422
    x[33]     c1        946
    x[33]     OBJ       315
    x[34]     c2        769
    x[34]     c3        836
    x[34]     c4        801
    x[34]     c5        778
    x[34]     c6        943
    x[34]     c7        297
    x[34]     c8        367
    x[34]     c9        746
    x[34]     c10       673
    x[34]     c11       485
    x[34]     c1        666
    x[34]     OBJ       -499
    x[35]     c2        745
    x[35]     c3        224
    x[35]     c4        894
    x[35]     c5        985
    x[35]     c6        757
    x[35]     c7        420
    x[35]     c8        514
    x[35]     c9        563
    x[35]     c10       229
    x[35]     c11       747
    x[35]     c1        630
    x[35]     OBJ       -218
    x[36]     c2        540
    x[36]     c3        917
    x[36]     c4        185
    x[36]     c5        520
    x[36]     c6        326
    x[36]     c7        672
    x[36]     c8        726
    x[36]     c9        349
    x[36]     c10       490
    x[36]     c11       680
    x[36]     c1        462
    x[36]     OBJ       -413
    x[37]     c2        966
    x[37]     c3        898
    x[37]     c4        947
    x[37]     c5        385
    x[37]     c6        620
    x[37]     c7        928
    x[37]     c8        802
    x[37]     c9        878
    x[37]     c10       6
    x[37]     c11       353
    x[37]     c1        841
    x[37]     OBJ       -140
    x[38]     c2        450
    x[38]     c3        894
    x[38]     c4        680
    x[38]     c5        110
    x[38]     c6        687
    x[38]     c7        409
    x[38]     c8        170
    x[38]     c9        552
    x[38]     c10       753
    x[38]     c11       545
    x[38]     c1        2
    x[38]     OBJ       -612
    x[39]     c2        721
    x[39]     c3        347
    x[39]     c4        917
    x[39]     c5        905
    x[39]     c6        63
    x[39]     c7        969
    x[39]     c8        440
    x[39]     c9        721
    x[39]     c10       670
    x[39]     c11       254
    x[39]     c1        778
    x[39]     OBJ       -76
    x[40]     c2        242
    x[40]     c3        576
    x[40]     c4        275
    x[40]     c5        501
    x[40]     c6        439
    x[40]     c7        696
    x[40]     c8        501
    x[40]     c9        367
    x[40]     c10       278
    x[40]     c11       128
    x[40]     c1        714
    x[40]     OBJ       -104
    x[41]     c2        559
    x[41]     c3        434
    x[41]     c4        887
    x[41]     c5        69
    x[41]     c6        614
    x[41]     c7        694
    x[41]     c8        132
    x[41]     c9        803
    x[41]     c10       158
    x[41]     c11       710
    x[41]     c1        855
    x[41]     OBJ       -134
    x[42]     c2        352
    x[42]     c3        834
    x[42]     c4        792
    x[42]     c5        944
    x[42]     c6        533
    x[42]     c7        276
    x[42]     c8        679
    x[42]     c9        132
    x[42]     c10       541
    x[42]     c11       469
    x[42]     c1        768
    x[42]     OBJ       -194
    x[43]     c2        990
    x[43]     c3        243
    x[43]     c4        986
    x[43]     c5        922
    x[43]     c6        522
    x[43]     c7        507
    x[43]     c8        671
    x[43]     c9        982
    x[43]     c10       795
    x[43]     c11       97
    x[43]     c1        141
    x[43]     OBJ       -780
    x[44]     c2        951
    x[44]     c3        940
    x[44]     c4        424
    x[44]     c5        106
    x[44]     c6        174
    x[44]     c7        431
    x[44]     c8        373
    x[44]     c9        221
    x[44]     c10       163
    x[44]     c11       585
    x[44]     c1        847
    x[44]     OBJ       -15
    x[45]     c2        875
    x[45]     c3        403
    x[45]     c4        167
    x[45]     c5        680
    x[45]     c6        439
    x[45]     c7        252
    x[45]     c8        164
    x[45]     c9        891
    x[45]     c10       998
    x[45]     c11       398
    x[45]     c1        325
    x[45]     OBJ       -612
    x[46]     c2        329
    x[46]     c3        326
    x[46]     c4        108
    x[46]     c5        315
    x[46]     c6        862
    x[46]     c7        910
    x[46]     c8        295
    x[46]     c9        751
    x[46]     c10       528
    x[46]     c11       780
    x[46]     c1        765
    x[46]     OBJ       -66
    x[47]     c2        803
    x[47]     c3        408
    x[47]     c4        389
    x[47]     c5        735
    x[47]     c6        981
    x[47]     c7        206
    x[47]     c8        137
    x[47]     c9        296
    x[47]     c10       394
    x[47]     c11       700
    x[47]     c1        10
    x[47]     OBJ       -968
    x[48]     c2        892
    x[48]     c3        353
    x[48]     c4        258
    x[48]     c5        912
    x[48]     c6        972
    x[48]     c7        260
    x[48]     c8        860
    x[48]     c9        406
    x[48]     c10       65
    x[48]     c11       361
    x[48]     c1        162
    x[48]     OBJ       -503
    x[49]     c2        52
    x[49]     c3        945
    x[49]     c4        941
    x[49]     c5        904
    x[49]     c6        789
    x[49]     c7        666
    x[49]     c8        184
    x[49]     c9        689
    x[49]     c10       614
    x[49]     c11       509
    x[49]     c1        208
    x[49]     OBJ       -677
    x[50]     c2        681
    x[50]     c3        307
    x[50]     c4        963
    x[50]     c5        585
    x[50]     c6        573
    x[50]     c7        464
    x[50]     c8        358
    x[50]     c9        721
    x[50]     c10       349
    x[50]     c11       36
    x[50]     c1        981
    x[50]     OBJ       392
    x[51]     c2        388
    x[51]     c3        48
    x[51]     c4        47
    x[51]     c5        877
    x[51]     c6        262
    x[51]     c7        784
    x[51]     c8        299
    x[51]     c9        77
    x[51]     c10       198
    x[51]     c11       216
    x[51]     c1        638
    x[51]     OBJ       -161
    x[52]     c2        824
    x[52]     c3        302
    x[52]     c4        869
    x[52]     c5        475
    x[52]     c6        989
    x[52]     c7        372
    x[52]     c8        696
    x[52]     c9        199
    x[52]     c10       451
    x[52]     c11       357
    x[52]     c1        184
    x[52]     OBJ       -595
    x[53]     c2        892
    x[53]     c3        287
    x[53]     c4        711
    x[53]     c5        136
    x[53]     c6        573
    x[53]     c7        740
    x[53]     c8        263
    x[53]     c9        803
    x[53]     c10       325
    x[53]     c11       912
    x[53]     c1        124
    x[53]     OBJ       -516
    x[54]     c2        381
    x[54]     c3        621
    x[54]     c4        117
    x[54]     c5        92
    x[54]     c6        184
    x[54]     c7        948
    x[54]     c8        966
    x[54]     c9        187
    x[54]     c10       136
    x[54]     c11       927
    x[54]     c1        910
    x[54]     OBJ       -125
    x[55]     c2        52
    x[55]     c3        546
    x[55]     c4        170
    x[55]     c5        495
    x[55]     c6        604
    x[55]     c7        998
    x[55]     c8        570
    x[55]     c9        191
    x[55]     c10       570
    x[55]     c11       188
    x[55]     c1        332
    x[55]     OBJ       -165
    x[56]     c2        774
    x[56]     c3        749
    x[56]     c4        725
    x[56]     c5        799
    x[56]     c6        828
    x[56]     c7        314
    x[56]     c8        155
    x[56]     c9        769
    x[56]     c10       635
    x[56]     c11       229
    x[56]     c1        634
    x[56]     OBJ       -160
    x[57]     c2        372
    x[57]     c3        869
    x[57]     c4        221
    x[57]     c5        300
    x[57]     c6        336
    x[57]     c7        887
    x[57]     c8        629
    x[57]     c9        174
    x[57]     c10       921
    x[57]     c11       161
    x[57]     c1        555
    x[57]     OBJ       -154
    x[58]     c2        368
    x[58]     c3        147
    x[58]     c4        131
    x[58]     c5        479
    x[58]     c6        503
    x[58]     c7        968
    x[58]     c8        12
    x[58]     c9        999
    x[58]     c10       192
    x[58]     c11       309
    x[58]     c1        55
    x[58]     OBJ       -627
    x[59]     c2        969
    x[59]     c3        870
    x[59]     c4        370
    x[59]     c5        540
    x[59]     c6        1000
    x[59]     c7        257
    x[59]     c8        164
    x[59]     c9        84
    x[59]     c10       919
    x[59]     c11       765
    x[59]     c1        396
    x[59]     OBJ       -658
    x[60]     c2        929
    x[60]     c3        329
    x[60]     c4        371
    x[60]     c5        125
    x[60]     c6        515
    x[60]     c7        230
    x[60]     c8        261
    x[60]     c9        598
    x[60]     c10       657
    x[60]     c11       834
    x[60]     c1        23
    x[60]     OBJ       -688
    x[61]     c2        378
    x[61]     c3        115
    x[61]     c4        792
    x[61]     c5        820
    x[61]     c6        954
    x[61]     c7        62
    x[61]     c8        471
    x[61]     c9        886
    x[61]     c10       169
    x[61]     c11       220
    x[61]     c1        171
    x[61]     OBJ       -634
    x[62]     c2        449
    x[62]     c3        450
    x[62]     c4        460
    x[62]     c5        712
    x[62]     c6        751
    x[62]     c7        410
    x[62]     c8        833
    x[62]     c9        747
    x[62]     c10       643
    x[62]     c11       310
    x[62]     c1        310
    x[62]     OBJ       -683
    x[63]     c2        249
    x[63]     c3        534
    x[63]     c4        264
    x[63]     c5        258
    x[63]     c6        627
    x[63]     c7        718
    x[63]     c8        958
    x[63]     c9        63
    x[63]     c10       755
    x[63]     c11       538
    x[63]     c1        181
    x[63]     OBJ       -489
    x[64]     c2        255
    x[64]     c3        592
    x[64]     c4        518
    x[64]     c5        299
    x[64]     c6        776
    x[64]     c7        543
    x[64]     c8        805
    x[64]     c9        225
    x[64]     c10       548
    x[64]     c11       399
    x[64]     c1        378
    x[64]     OBJ       -255
    x[65]     c2        123
    x[65]     c3        609
    x[65]     c4        111
    x[65]     c5        776
    x[65]     c6        676
    x[65]     c7        553
    x[65]     c8        78
    x[65]     c9        655
    x[65]     c10       638
    x[65]     c11       247
    x[65]     c1        600
    x[65]     OBJ       -255
    x[66]     c2        745
    x[66]     c3        25
    x[66]     c4        127
    x[66]     c5        587
    x[66]     c6        899
    x[66]     c7        397
    x[66]     c8        352
    x[66]     c9        10
    x[66]     c10       576
    x[66]     c11       624
    x[66]     c1        742
    x[66]     OBJ       -39
    x[67]     c2        978
    x[67]     c3        16
    x[67]     c4        370
    x[67]     c5        358
    x[67]     c6        870
    x[67]     c7        728
    x[67]     c8        857
    x[67]     c9        984
    x[67]     c10       666
    x[67]     c11       699
    x[67]     c1        275
    x[67]     OBJ       -794
    x[68]     c2        862
    x[68]     c3        392
    x[68]     c4        875
    x[68]     c5        503
    x[68]     c6        974
    x[68]     c7        640
    x[68]     c8        253
    x[68]     c9        880
    x[68]     c10       133
    x[68]     c11       154
    x[68]     c1        601
    x[68]     OBJ       -68
    x[69]     c2        302
    x[69]     c3        202
    x[69]     c4        121
    x[69]     c5        815
    x[69]     c6        516
    x[69]     c7        306
    x[69]     c8        548
    x[69]     c9        378
    x[69]     c10       709
    x[69]     c11       748
    x[69]     c1        951
    x[69]     OBJ       444
    x[70]     c2        549
    x[70]     c3        5
    x[70]     c4        69
    x[70]     c5        168
    x[70]     c6        5
    x[70]     c7        471
    x[70]     c8        250
    x[70]     c9        386
    x[70]     c10       794
    x[70]     c11       77
    x[70]     c1        731
    x[70]     OBJ       323
    x[71]     c2        229
    x[71]     c3        818
    x[71]     c4        396
    x[71]     c5        979
    x[71]     c6        891
    x[71]     c7        118
    x[71]     c8        75
    x[71]     c9        804
    x[71]     c10       457
    x[71]     c11       575
    x[71]     c1        166
    x[71]     OBJ       -720
    x[72]     c2        418
    x[72]     c3        195
    x[72]     c4        485
    x[72]     c5        658
    x[72]     c6        848
    x[72]     c7        499
    x[72]     c8        55
    x[72]     c9        451
    x[72]     c10       334
    x[72]     c11       553
    x[72]     c1        659
    x[72]     OBJ       -253
    x[73]     c2        389
    x[73]     c3        444
    x[73]     c4        433
    x[73]     c5        840
    x[73]     c6        218
    x[73]     c7        463
    x[73]     c8        823
    x[73]     c9        360
    x[73]     c10       134
    x[73]     c11       454
    x[73]     c1        15
    x[73]     OBJ       -631
    x[74]     c2        768
    x[74]     c3        571
    x[74]     c4        305
    x[74]     c5        984
    x[74]     c6        664
    x[74]     c7        987
    x[74]     c8        187
    x[74]     c9        779
    x[74]     c10       105
    x[74]     c11       161
    x[74]     c1        230
    x[74]     OBJ       -655
    x[75]     c2        961
    x[75]     c3        948
    x[75]     c4        589
    x[75]     c5        974
    x[75]     c6        79
    x[75]     c7        916
    x[75]     c8        679
    x[75]     c9        364
    x[75]     c10       847
    x[75]     c11       640
    x[75]     c1        577
    x[75]     OBJ       -176
    x[76]     c2        186
    x[76]     c3        154
    x[76]     c4        908
    x[76]     c5        532
    x[76]     c6        542
    x[76]     c7        425
    x[76]     c8        627
    x[76]     c9        154
    x[76]     c10       949
    x[76]     c11       693
    x[76]     c1        807
    x[76]     OBJ       -31
    x[77]     c2        657
    x[77]     c3        552
    x[77]     c4        460
    x[77]     c5        765
    x[77]     c6        938
    x[77]     c7        198
    x[77]     c8        680
    x[77]     c9        897
    x[77]     c10       986
    x[77]     c11       28
    x[77]     c1        420
    x[77]     OBJ       -569
    x[78]     c2        717
    x[78]     c3        567
    x[78]     c4        214
    x[78]     c5        962
    x[78]     c6        397
    x[78]     c7        525
    x[78]     c8        626
    x[78]     c9        572
    x[78]     c10       400
    x[78]     c11       487
    x[78]     c1        862
    x[78]     OBJ       -6
    x[79]     c2        254
    x[79]     c3        820
    x[79]     c4        1
    x[79]     c5        851
    x[79]     c6        660
    x[79]     c7        435
    x[79]     c8        44
    x[79]     c9        863
    x[79]     c10       747
    x[79]     c11       111
    x[79]     c1        974
    x[79]     OBJ       -14
    x[80]     c2        533
    x[80]     c3        243
    x[80]     c4        389
    x[80]     c5        323
    x[80]     c6        397
    x[80]     c7        677
    x[80]     c8        78
    x[80]     c9        864
    x[80]     c10       47
    x[80]     c11       424
    x[80]     c1        991
    x[80]     OBJ       221
    x[81]     c2        733
    x[81]     c3        537
    x[81]     c4        972
    x[81]     c5        963
    x[81]     c6        567
    x[81]     c7        301
    x[81]     c8        179
    x[81]     c9        522
    x[81]     c10       767
    x[81]     c11       112
    x[81]     c1        795
    x[81]     OBJ       -1
    x[82]     c2        144
    x[82]     c3        358
    x[82]     c4        31
    x[82]     c5        904
    x[82]     c6        183
    x[82]     c7        329
    x[82]     c8        116
    x[82]     c9        317
    x[82]     c10       63
    x[82]     c11       17
    x[82]     c1        938
    x[82]     OBJ       569
    x[83]     c2        208
    x[83]     c3        260
    x[83]     c4        426
    x[83]     c5        185
    x[83]     c6        96
    x[83]     c7        775
    x[83]     c8        950
    x[83]     c9        575
    x[83]     c10       331
    x[83]     c11       95
    x[83]     c1        792
    x[83]     OBJ       -10
    x[84]     c2        928
    x[84]     c3        706
    x[84]     c4        836
    x[84]     c5        507
    x[84]     c6        592
    x[84]     c7        699
    x[84]     c8        866
    x[84]     c9        337
    x[84]     c10       327
    x[84]     c11       597
    x[84]     c1        647
    x[84]     OBJ       -79
    x[85]     c2        919
    x[85]     c3        471
    x[85]     c4        986
    x[85]     c5        762
    x[85]     c6        846
    x[85]     c7        892
    x[85]     c8        900
    x[85]     c9        375
    x[85]     c10       675
    x[85]     c11       87
    x[85]     c1        59
    x[85]     OBJ       -639
    x[86]     c2        402
    x[86]     c3        237
    x[86]     c4        20
    x[86]     c5        40
    x[86]     c6        271
    x[86]     c7        242
    x[86]     c8        669
    x[86]     c9        411
    x[86]     c10       655
    x[86]     c11       1
    x[86]     c1        991
    x[86]     OBJ       481
    x[87]     c2        536
    x[87]     c3        676
    x[87]     c4        941
    x[87]     c5        798
    x[87]     c6        943
    x[87]     c7        620
    x[87]     c8        182
    x[87]     c9        692
    x[87]     c10       233
    x[87]     c11       307
    x[87]     c1        759
    x[87]     OBJ       -11
    x[88]     c2        900
    x[88]     c3        281
    x[88]     c4        652
    x[88]     c5        108
    x[88]     c6        201
    x[88]     c7        36
    x[88]     c8        376
    x[88]     c9        196
    x[88]     c10       724
    x[88]     c11       203
    x[88]     c1        627
    x[88]     OBJ       -197
    x[89]     c2        893
    x[89]     c3        145
    x[89]     c4        222
    x[89]     c5        628
    x[89]     c6        558
    x[89]     c7        881
    x[89]     c8        725
    x[89]     c9        302
    x[89]     c10       633
    x[89]     c11       806
    x[89]     c1        328
    x[89]     OBJ       -339
    x[90]     c2        814
    x[90]     c3        273
    x[90]     c4        914
    x[90]     c5        547
    x[90]     c6        926
    x[90]     c7        3
    x[90]     c8        635
    x[90]     c9        16
    x[90]     c10       743
    x[90]     c11       571
    x[90]     c1        902
    x[90]     OBJ       -36
    x[91]     c2        121
    x[91]     c3        567
    x[91]     c4        93
    x[91]     c5        123
    x[91]     c6        961
    x[91]     c7        192
    x[91]     c8        466
    x[91]     c9        251
    x[91]     c10       494
    x[91]     c11       334
    x[91]     c1        629
    x[91]     OBJ       -149
    x[92]     c2        601
    x[92]     c3        87
    x[92]     c4        634
    x[92]     c5        127
    x[92]     c6        357
    x[92]     c7        806
    x[92]     c8        398
    x[92]     c9        608
    x[92]     c10       36
    x[92]     c11       441
    x[92]     c1        510
    x[92]     OBJ       -100
    x[93]     c2        262
    x[93]     c3        692
    x[93]     c4        646
    x[93]     c5        231
    x[93]     c6        216
    x[93]     c7        761
    x[93]     c8        770
    x[93]     c9        751
    x[93]     c10       382
    x[93]     c11       489
    x[93]     c1        103
    x[93]     OBJ       -464
    x[94]     c2        207
    x[94]     c3        787
    x[94]     c4        343
    x[94]     c5        8
    x[94]     c6        110
    x[94]     c7        543
    x[94]     c8        611
    x[94]     c9        295
    x[94]     c10       25
    x[94]     c11       374
    x[94]     c1        788
    x[94]     OBJ       -165
    x[95]     c2        735
    x[95]     c3        878
    x[95]     c4        923
    x[95]     c5        781
    x[95]     c6        419
    x[95]     c7        806
    x[95]     c8        285
    x[95]     c9        180
    x[95]     c10       187
    x[95]     c11       695
    x[95]     c1        73
    x[95]     OBJ       -892
    x[96]     c2        125
    x[96]     c3        857
    x[96]     c4        613
    x[96]     c5        862
    x[96]     c6        627
    x[96]     c7        118
    x[96]     c8        688
    x[96]     c9        904
    x[96]     c10       883
    x[96]     c11       929
    x[96]     c1        379
    x[96]     OBJ       -303
    x[97]     c2        755
    x[97]     c3        821
    x[97]     c4        808
    x[97]     c5        810
    x[97]     c6        267
    x[97]     c7        543
    x[97]     c8        921
    x[97]     c9        13
    x[97]     c10       483
    x[97]     c11       411
    x[97]     c1        573
    x[97]     OBJ       -227
    x[98]     c2        581
    x[98]     c3        89
    x[98]     c4        264
    x[98]     c5        638
    x[98]     c6        111
    x[98]     c7        810
    x[98]     c8        640
    x[98]     c9        695
    x[98]     c10       923
    x[98]     c11       438
    x[98]     c1        783
    x[98]     OBJ       -151
    x[99]     c2        464
    x[99]     c3        983
    x[99]     c4        160
    x[99]     c5        248
    x[99]     c6        742
    x[99]     c7        272
    x[99]     c8        853
    x[99]     c9        726
    x[99]     c10       860
    x[99]     c11       416
    x[99]     c1        310
    x[99]     OBJ       -444
    x[100]    c2        674
    x[100]    c3        388
    x[100]    c4        254
    x[100]    c5        198
    x[100]    c6        211
    x[100]    c7        461
    x[100]    c8        856
    x[100]    c9        615
    x[100]    c10       249
    x[100]    c11       805
    x[100]    c1        38
    x[100]    OBJ       -711
RHS
    rhs       c2        13640
    rhs       c3        12048
    rhs       c4        12574
    rhs       c5        13915
    rhs       c6        13232
    rhs       c7        12190
    rhs       c8        12242
    rhs       c9        12394
    rhs       c10       12258
    rhs       c11       10960
    rhs       c1        12839
RANGES
BOUNDS
 LO bounds    ss[1]     0
 PL bounds    ss[1]
 MI bounds    s[1]
 UP bounds    s[1]      0
 MI bounds    s[2]
 UP bounds    s[2]      0
 MI bounds    s[3]
 UP bounds    s[3]      0
 MI bounds    s[4]
 UP bounds    s[4]      0
 MI bounds    s[5]
 UP bounds    s[5]      0
 MI bounds    s[6]
 UP bounds    s[6]      0
 MI bounds    s[7]
 UP bounds    s[7]      0
 MI bounds    s[8]
 UP bounds    s[8]      0
 MI bounds    s[9]
 UP bounds    s[9]      0
 MI bounds    s[10]
 UP bounds    s[10]     0
 BV bounds    x[1]
 BV bounds    x[2]
 BV bounds    x[3]
 BV bounds    x[4]
 BV bounds    x[5]
 BV bounds    x[6]
 BV bounds    x[7]
 BV bounds    x[8]
 BV bounds    x[9]
 BV bounds    x[10]
 BV bounds    x[11]
 BV bounds    x[12]
 BV bounds    x[13]
 BV bounds    x[14]
 BV bounds    x[15]
 BV bounds    x[16]
 BV bounds    x[17]
 BV bounds    x[18]
 BV bounds    x[19]
 BV bounds    x[20]
 BV bounds    x[21]
 BV bounds    x[22]
 BV bounds    x[23]
 BV bounds    x[24]
 BV bounds    x[25]
 BV bounds    x[26]
 BV bounds    x[27]
 BV bounds    x[28]
 BV bounds    x[29]
 BV bounds    x[30]
 BV bounds    x[31]
 BV bounds    x[32]
 BV bounds    x[33]
 BV bounds    x[34]
 BV bounds    x[35]
 BV bounds    x[36]
 BV bounds    x[37]
 BV bounds    x[38]
 BV bounds    x[39]
 BV bounds    x[40]
 BV bounds    x[41]
 BV bounds    x[42]
 BV bounds    x[43]
 BV bounds    x[44]
 BV bounds    x[45]
 BV bounds    x[46]
 BV bounds    x[47]
 BV bounds    x[48]
 BV bounds    x[49]
 BV bounds    x[50]
 BV bounds    x[51]
 BV bounds    x[52]
 BV bounds    x[53]
 BV bounds    x[54]
 BV bounds    x[55]
 BV bounds    x[56]
 BV bounds    x[57]
 BV bounds    x[58]
 BV bounds    x[59]
 BV bounds    x[60]
 BV bounds    x[61]
 BV bounds    x[62]
 BV bounds    x[63]
 BV bounds    x[64]
 BV bounds    x[65]
 BV bounds    x[66]
 BV bounds    x[67]
 BV bounds    x[68]
 BV bounds    x[69]
 BV bounds    x[70]
 BV bounds    x[71]
 BV bounds    x[72]
 BV bounds    x[73]
 BV bounds    x[74]
 BV bounds    x[75]
 BV bounds    x[76]
 BV bounds    x[77]
 BV bounds    x[78]
 BV bounds    x[79]
 BV bounds    x[80]
 BV bounds    x[81]
 BV bounds    x[82]
 BV bounds    x[83]
 BV bounds    x[84]
 BV bounds    x[85]
 BV bounds    x[86]
 BV bounds    x[87]
 BV bounds    x[88]
 BV bounds    x[89]
 BV bounds    x[90]
 BV bounds    x[91]
 BV bounds    x[92]
 BV bounds    x[93]
 BV bounds    x[94]
 BV bounds    x[95]
 BV bounds    x[96]
 BV bounds    x[97]
 BV bounds    x[98]
 BV bounds    x[99]
 BV bounds    x[100]
ENDATA
